cases/pglib-opf/pglib_opf_case30_fsr.m
ipopt
DCP
[info | PowerModels]: extending matpower format with data: areas 3x3

******************************************************************************
This program contains Ipopt, a library for large-scale nonlinear optimization.
 Ipopt is released as open source code under the Eclipse Public License (EPL).
         For more information visit http://projects.coin-or.org/Ipopt
******************************************************************************

This is Ipopt version 3.13.2, running with linear solver mumps.
NOTE: Other linear solvers might be more efficient (see Ipopt documentation).

Number of nonzeros in equality constraint Jacobian...:      212
Number of nonzeros in inequality constraint Jacobian.:      164
Number of nonzeros in Lagrangian Hessian.............:        6

Total number of variables............................:       77
                     variables with only lower bounds:        0
                variables with lower and upper bounds:       47
                     variables with only upper bounds:        0
Total number of equality constraints.................:       72
Total number of inequality constraints...............:       82
        inequality constraints with only lower bounds:       41
   inequality constraints with lower and upper bounds:        0
        inequality constraints with only upper bounds:       41

iter    objective    inf_pr   inf_du lg(mu)  ||d||  lg(rg) alpha_du alpha_pr  ls
   0  7.4358840e+00 3.00e-01 2.25e+01  -1.0 0.00e+00    -  0.00e+00 0.00e+00   0
   1  5.6845201e+02 2.22e-16 4.74e+01  -1.0 4.82e-01    -  2.03e-02 1.00e+00h  1
   2  5.6522400e+02 2.22e-16 1.00e-06  -1.0 9.07e-02    -  1.00e+00 1.00e+00f  1
   3  5.6520613e+02 2.22e-16 2.83e-08  -2.5 6.36e-03    -  1.00e+00 1.00e+00f  1
   4  5.6520597e+02 2.22e-16 1.50e-09  -3.8 9.37e-04    -  1.00e+00 1.00e+00f  1
   5  5.6520597e+02 2.22e-16 1.84e-11  -5.7 1.74e-05    -  1.00e+00 1.00e+00h  1
   6  5.6520597e+02 4.44e-16 2.60e-14  -8.6 1.48e-07    -  1.00e+00 1.00e+00h  1

Number of Iterations....: 6

                                   (scaled)                 (unscaled)
Objective...............:   1.7390952812305295e+02    5.6520596639992209e+02
Dual infeasibility......:   2.6027151100164363e-14    8.4588241075534180e-14
Constraint violation....:   4.4408920985006262e-16    4.4408920985006262e-16
Complementarity.........:   2.5076001539515803e-09    8.1497005003426354e-09
Overall NLP error.......:   2.5076001539515803e-09    8.1497005003426354e-09


Number of objective function evaluations             = 7
Number of objective gradient evaluations             = 7
Number of equality constraint evaluations            = 7
Number of inequality constraint evaluations          = 7
Number of equality constraint Jacobian evaluations   = 1
Number of inequality constraint Jacobian evaluations = 1
Number of Lagrangian Hessian evaluations             = 1
Total CPU secs in IPOPT (w/o function evaluations)   =      0.234
Total CPU secs in NLP function evaluations           =      0.209

EXIT: Optimal Solution Found.
Time to Solution........:1.1052720546722412
